Element,IntegrationPoint,X,Y,S11,S22,S33,S12
405,1,151.56184,0.2484494,-0.032509066,2.8642359,-0.75495714,-0.0105092535
406,1,151.55821,0.74533343,-0.032203853,2.8640516,-0.75459146,-0.03154798
407,1,151.55096,1.2421793,-0.0315976,2.8637009,-0.75385547,-0.052585486
408,1,151.54008,1.7389585,-0.030695679,2.8631887,-0.75274956,-0.0736036
409,1,151.52557,2.2356453,-0.02947229,2.8624732,-0.7512796,-0.09460504
410,1,151.50745,2.732212,-0.027946772,2.861587,-0.7494413,-0.115606874
411,1,151.4857,3.2286336,-0.026119055,2.8605328,-0.74723446,-0.13658999
412,1,151.46034,3.7248855,-0.024000071,2.859303,-0.7446658,-0.15753302
413,1,151.43135,4.2209363,-0.02157765,2.8578937,-0.7417334,-0.17846017
414,1,151.39876,4.7167664,-0.01885373,2.8563213,-0.7384329,-0.19936013
415,1,151.36258,5.2123437,-0.015823724,2.8545532,-0.7347748,-0.22022496
416,1,151.32278,5.707647,-0.012498781,2.8526275,-0.7307511,-0.2410557
417,1,151.27939,6.202647,-0.008873371,2.8505368,-0.7263636,-0.26186213
418,1,151.2324,6.6973195,-0.004934236,2.8482356,-0.7216243,-0.28260654
419,1,151.18185,7.191639,-0.00072287495,2.8457894,-0.7165265,-0.303321
420,1,151.12772,7.685579,0.003786643,2.8431907,-0.71106535,-0.32399413
421,1,151.07002,8.179116,0.008599815,2.8403828,-0.7052595,-0.34457174
422,1,151.00876,8.672225,0.013709261,2.8374147,-0.69909656,-0.36513072
423,1,150.94395,9.164879,0.019113967,2.834277,-0.69258183,-0.3856371
424,1,150.8756,9.657052,0.024791174,2.8309708,-0.68572444,-0.40606526
425,1,150.80371,10.148724,0.030761441,2.8274915,-0.6785208,-0.42644626
426,1,150.7283,10.639868,0.03701628,2.8238451,-0.67097354,-0.4467369
427,1,150.64938,11.130459,0.04355643,2.820046,-0.6630798,-0.46696103
428,1,150.56697,11.620474,0.05039881,2.8160367,-0.6548553,-0.48712507
429,1,150.48105,12.109889,0.05750634,2.8118935,-0.6462891,-0.5072105
430,1,150.39166,12.59868,0.06488514,2.807607,-0.63738436,-0.52721596
431,1,150.2988,13.086824,0.07256246,2.8031063,-0.62815857,-0.547123
432,1,150.20248,13.574298,0.080514215,2.79846,-0.6185988,-0.56695807
433,1,150.10272,14.06108,0.08873026,2.7936664,-0.6087119,-0.5867076
434,1,149.99954,14.547146,0.09721292,2.7886982,-0.5985086,-0.6063481
435,1,149.89293,15.0324745,0.10596851,2.7835584,-0.5879886,-0.625922
436,1,149.78293,15.517042,0.114994004,2.778273,-0.5771468,-0.64537424
437,1,149.66954,16.00083,0.12426802,2.7728338,-0.56599605,-0.6647325
438,1,149.55276,16.483812,0.13383612,2.7672255,-0.55452895,-0.6839898
439,1,149.43263,16.965971,0.1436474,2.7614522,-0.5427643,-0.7031285
440,1,149.30916,17.447285,0.15371644,2.7555296,-0.53069484,-0.7221915
441,1,149.18236,17.927734,0.1640224,2.7494876,-0.51832056,-0.74112
442,1,149.05225,18.407293,0.17459318,2.7432551,-0.5056592,-0.7599272
443,1,148.91884,18.885946,0.18542723,2.7368743,-0.4927001,-0.77862316
444,1,148.78215,19.363676,0.19649701,2.7303553,-0.4794525,-0.7972156
445,1,148.6422,19.840456,0.20781295,2.723676,-0.4659236,-0.81567174
446,1,148.499,20.316273,0.2193562,2.716864,-0.45211366,-0.8340032
447,1,148.35255,20.791105,0.23114829,2.7098787,-0.43803266,-0.8522092
448,1,148.20291,21.264936,0.24315993,2.702763,-0.42367926,-0.8702933
449,1,148.05008,21.737745,0.25540864,2.695516,-0.40905127,-0.8882472
450,1,147.89406,22.209517,0.26788613,2.6881099,-0.3941644,-0.9060452
451,1,147.7349,22.680231,0.28059676,2.680572,-0.3790115,-0.9237214
452,1,147.57257,23.149872,0.29352728,2.6729033,-0.36360034,-0.9412685
453,1,147.40714,23.618422,0.30667832,2.6650767,-0.34794334,-0.95866513
454,1,147.2386,24.085865,0.32003388,2.6571372,-0.3320344,-0.9759243
455,1,147.06697,24.552183,0.33360806,2.6490667,-0.3158786,-0.9930396
456,1,146.89229,25.017365,0.3473945,2.6408226,-0.29949614,-1.0100023
457,1,146.71455,25.48139,0.3613843,2.632496,-0.28286278,-1.0268292
458,1,146.5338,25.944244,0.37556493,2.6240263,-0.26600727,-1.0434892
459,1,146.35002,26.405912,0.3899613,2.615414,-0.24892457,-1.0600113
460,1,146.16327,26.86638,0.4045507,2.6066914,-0.23161511,-1.0763707
461,1,145.97356,27.325636,0.41931835,2.5978427,-0.2140932,-1.0925701
462,1,145.78088,27.78366,0.4342849,2.5888867,-0.1963491,-1.108618
463,1,145.5853,28.240444,0.44943213,2.5797758,-0.17840911,-1.1245016
464,1,145.38678,28.695972,0.46476388,2.5705655,-0.16025679,-1.1402464
465,1,145.1854,29.15023,0.48026,2.5612657,-0.14189948,-1.1558149
466,1,144.98114,29.603207,0.49594104,2.5518267,-0.12335076,-1.1711932
467,1,144.77405,30.05489,0.5118054,2.5422537,-0.10461346,-1.1864392
468,1,144.56412,30.505266,0.52783114,2.5326025,-0.08567967,-1.2015173
469,1,144.35138,30.954325,0.54398996,2.522848,-0.066571675,-1.2164053
470,1,144.13586,31.402052,0.5603398,2.5129564,-0.047284838,-1.2311597
471,1,143.91759,31.84844,0.57683605,2.5029857,-0.02781839,-1.2457118
472,1,143.69656,32.293476,0.593477,2.4929128,-0.008184776,-1.2601086
473,1,143.47281,32.73715,0.6102985,2.4827204,0.011618593,-1.2743282
474,1,143.24637,33.17945,0.62723386,2.4724422,0.031576626,-1.2883648
475,1,143.01723,33.62037,0.6443268,2.4620774,0.051700223,-1.3022524
476,1,142.78545,34.05989,0.6615437,2.4516077,0.071967974,-1.3159394
477,1,142.55103,34.498016,0.6789008,2.4410474,0.092386454,-1.3294601
478,1,142.31396,34.934727,0.6963945,2.430408,0.11295458,-1.3428093
479,1,142.07433,35.37002,0.7140169,2.4196413,0.13364953,-1.3559718
480,1,141.8321,35.803883,0.7317571,2.4088252,0.15449037,-1.3689547
481,1,141.58733,36.23631,0.7496066,2.3979242,0.17545848,-1.3817791
482,1,141.34001,36.667294,0.76759666,2.3869238,0.1965559,-1.394401
483,1,141.09018,37.09682,0.78567475,2.3758683,0.21777624,-1.4068353
484,1,140.83786,37.52489,0.80388856,2.3647134,0.23911685,-1.4191188
485,1,140.58307,37.951492,0.8222013,2.3534942,0.26057357,-1.4311997
486,1,140.32582,38.376617,0.8406032,2.3421884,0.28213203,-1.4430884
487,1,140.06615,38.800262,0.8591164,2.3308167,0.30380315,-1.4548317
488,1,139.80405,39.22242,0.8777181,2.3193703,0.3255726,-1.4663733
489,1,139.53957,39.643085,0.8964043,2.307865,0.34744108,-1.477723
490,1,139.27272,40.06225,0.9151948,2.2963037,0.36941278,-1.4889027
491,1,139.00351,40.479904,0.93406576,2.284654,0.39146504,-1.4998834
492,1,138.73198,40.896053,0.9530256,2.2729588,0.41361207,-1.5107058
493,1,138.45813,41.310684,0.9720593,2.2612152,0.43584418,-1.521335
494,1,138.182,41.723793,0.9911671,2.2493885,0.45814642,-1.5317693
495,1,137.9036,42.135372,1.0103556,2.2375202,0.4805319,-1.5420346
496,1,137.62294,42.545425,1.029599,2.2256093,0.50298804,-1.5521201
497,1,137.34006,42.953938,1.0489155,2.2136316,0.5255097,-1.5620085
498,1,137.05496,43.360916,1.0682913,2.201607,0.5480958,-1.5717219
499,1,136.76767,43.76635,1.0877346,2.189541,0.57074785,-1.5812571
500,1,136.47821,44.17023,1.1072187,2.177424,0.5934502,-1.5905917
501,1,136.1866,44.572567,1.1267713,2.1652422,0.6162045,-1.5997695
502,1,135.89285,44.973347,1.146371,2.153047,0.63901806,-1.6087631
503,1,135.597,45.372566,1.1659976,2.1408129,0.6618719,-1.6175532
504,1,135.29904,45.770226,1.1857007,2.1285174,0.68477297,-1.6261832
505,1,134.99902,46.16632,1.2054358,2.1162012,0.70771635,-1.6346215
506,1,134.69693,46.560852,1.2251966,2.103854,0.73069376,-1.6428846
507,1,134.3928,46.953815,1.245011,2.09147,0.75371003,-1.6509744
508,1,134.08667,47.345207,1.2648402,2.0790498,0.77674913,-1.6588677
509,1,133.77853,47.735023,1.2847115,2.066605,0.79982144,-1.6666042
510,1,133.4684,48.12327,1.304598,2.0541434,0.82291794,-1.6741502
511,1,133.15633,48.509933,1.3245146,2.0416389,0.8460319,-1.6815283
512,1,132.84229,48.895023,1.3444661,2.0291193,0.8691719,-1.6887197
513,1,132.52634,49.27853,1.3644158,2.0165706,0.89231795,-1.6957333
514,1,132.20845,49.660458,1.3844092,2.0039885,0.91548145,-1.702591
515,1,131.88869,50.0408,1.4043797,1.9914451,0.938662,-1.7092558
516,1,131.56706,50.41956,1.4243759,1.9788325,0.9618367,-1.7157551
517,1,131.24356,50.796734,1.4444079,1.9662099,0.9850267,-1.7220799
518,1,130.91823,51.172325,1.46441,1.9535878,1.0082108,-1.7282343
519,1,130.59108,51.54633,1.484441,1.940944,1.0313991,-1.7342232
520,1,130.26212,51.918747,1.5044513,1.9283217,1.054587,-1.7400333
521,1,129.93137,52.289577,1.5244775,1.9156389,1.0777568,-1.7456714
522,1,129.59885,52.65882,1.544514,1.9029576,1.1009253,-1.7511572
523,1,129.26457,53.02648,1.5645181,1.8903037,1.124085,-1.7564712
524,1,128.92857,53.392548,1.5845164,1.8776385,1.1472291,-1.7616057
525,1,128.59084,53.75703,1.6045235,1.8649538,1.1703578,-1.7665836
526,1,128.2514,54.119926,1.6245154,1.852268,1.1934673,-1.7713904
527,1,127.91028,54.481236,1.6444827,1.8395795,1.2165514,-1.7760429
528,1,127.56748,54.840958,1.6644428,1.8268982,1.2396176,-1.7805387
529,1,127.22303,55.199097,1.684369,1.8142289,1.2626566,-1.784862
530,1,126.87693,55.555645,1.7042892,1.8015554,1.28567,-1.7890244
531,1,126.52921,55.91061,1.7241948,1.7888782,1.3086536,-1.7930334
532,1,126.179886,56.263992,1.744073,1.7762173,1.3316078,-1.7968789
533,1,125.828964,56.615795,1.7639141,1.7635742,1.354528,-1.8005687
534,1,125.47646,56.96601,1.7837418,1.750921,1.3774109,-1.8041077
535,1,125.1224,57.31465,1.8035345,1.7382864,1.4002572,-1.8074877
536,1,124.766785,57.66171,1.8232912,1.7256703,1.4230648,-1.8107183
537,1,124.40964,58.007187,1.8430263,1.7130591,1.4458324,-1.8137951
538,1,124.05097,58.35109,1.8627194,1.7004646,1.4685553,-1.8167118
539,1,123.6908,58.693417,1.8823828,1.6878816,1.4912343,-1.8194875
540,1,123.32915,59.03417,1.9020118,1.6753097,1.5138661,-1.8221136
541,1,122.96601,59.37335,1.9215868,1.6627693,1.5364496,-1.8245866
542,1,122.60142,59.710957,1.9411355,1.6502429,1.5589864,-1.8269271
543,1,122.235374,60.046997,1.96064,1.6377358,1.5814712,-1.8291019
544,1,121.8679,60.38147,1.9800887,1.6252549,1.6039006,-1.8311368
545,1,121.499,60.714375,1.9995192,1.6127762,1.6262779,-1.8330462
546,1,121.1287,61.045715,2.0188851,1.6003385,1.6485993,-1.8347986
547,1,120.757,61.375492,2.0381958,1.5879253,1.6708609,-1.8364068
548,1,120.383934,61.703712,2.057479,1.5755178,1.6930646,-1.8378855
549,1,120.0095,62.030376,2.0767047,1.5631474,1.7152092,-1.8392236
550,1,119.63371,62.35548,2.0958674,1.5508118,1.7372912,-1.8404188
551,1,119.256584,62.679028,2.1149926,1.538494,1.7593119,-1.8414841
552,1,118.87813,63.001026,2.1340554,1.5262078,1.7812668,-1.8424057
553,1,118.49836,63.321476,2.153066,1.5139439,1.803155,-1.8432052
554,1,118.117294,63.640377,2.1720247,1.5017235,1.8249822,-1.8438684
555,1,117.73494,63.957733,2.1909094,1.4895186,1.8467307,-1.8443909
556,1,117.35131,64.273544,2.2097676,1.4773322,1.8684164,-1.8447957
557,1,116.96642,64.58782,2.2285306,1.4652222,1.8900348,-1.8450656
558,1,116.58028,64.90056,2.2472491,1.4531052,1.9115739,-1.845215
559,1,116.192894,65.211754,2.2659245,1.4410449,1.9330543,-1.8452288
560,1,115.80429,65.52142,2.284496,1.4290172,1.9544468,-1.845114
561,1,115.41446,65.82956,2.3030567,1.4170017,1.9757748,-1.8448907
562,1,115.02344,66.13617,2.3215172,1.4050573,1.997027,-1.8445399
563,1,114.63122,66.441246,2.339918,1.3931245,2.018196,-1.8440552
564,1,114.23782,66.74481,2.358265,1.3812373,2.0392952,-1.8434584
565,1,113.84326,67.04685,2.3765345,1.3693819,2.0603104,-1.8427472
566,1,113.44753,67.347374,2.3947473,1.3575602,2.0812485,-1.8419117
567,1,113.05067,67.64638,2.4128766,1.3457987,2.1021087,-1.8409619
568,1,112.652664,67.94388,2.430948,1.3340676,2.1228893,-1.8398947
569,1,112.25353,68.23986,2.4489465,1.3223667,2.1435835,-1.8387072
570,1,111.8533,68.53434,2.466882,1.3107202,2.1642032,-1.8374207
571,1,111.45196,68.82732,2.4847403,1.2991064,2.1847346,-1.8360133
572,1,111.04952,69.11879,2.5025208,1.2875453,2.205184,-1.8344854
573,1,110.64601,69.408775,2.5202394,1.276003,2.2255452,-1.8328618
574,1,110.241425,69.69725,2.5378897,1.2645146,2.2458262,-1.8311251
575,1,109.835785,69.984245,2.5554411,1.2530907,2.2660205,-1.8292844
576,1,109.429085,70.269745,2.5729442,1.2416819,2.2861278,-1.827327
577,1,109.021355,70.55376,2.590365,1.2303286,2.3061495,-1.8252665
578,1,108.61259,70.83629,2.6077106,1.2190237,2.326085,-1.8231107
579,1,108.20281,71.11734,2.6249788,1.207768,2.3459332,-1.820845
580,1,107.792015,71.396904,2.6421707,1.1965395,2.3656871,-1.8184742
581,1,107.380226,71.675,2.6592975,1.1853696,2.3853602,-1.8160089
582,1,106.967445,71.95163,2.6763294,1.1742485,2.404939,-1.8134434
583,1,106.55368,72.22678,2.6932924,1.1631714,2.4244294,-1.8107728
584,1,106.13895,72.50047,2.7101848,1.152134,2.4438298,-1.8080145
585,1,105.72324,72.7727,2.726995,1.1411519,2.463141,-1.8051456
586,1,105.3066,73.043465,2.7437086,1.130228,2.4823582,-1.8021873
587,1,104.88901,73.312775,2.7603743,1.1193254,2.5014856,-1.7991383
588,1,104.47048,73.58063,2.7769365,1.1084851,2.5205176,-1.7959858
589,1,104.051025,73.84703,2.7934258,1.0976882,2.5394576,-1.792753
590,1,103.63066,74.111984,2.8098392,1.0869544,2.5583115,-1.7894236
591,1,103.20939,74.375496,2.8261554,1.0762613,2.5770638,-1.7859983
592,1,102.78722,74.63756,2.8424253,1.0656061,2.5957305,-1.7824867
593,1,102.36415,74.89819,2.8585796,1.0550262,2.6143007,-1.7788845
594,1,101.9402,75.15738,2.874665,1.0444776,2.6327748,-1.7752012
595,1,101.51538,75.41514,2.89068,1.0339915,2.6511626,-1.7714343
596,1,101.0897,75.67147,2.9065936,1.0235441,2.6694458,-1.7675703
597,1,100.66316,75.92637,2.9224453,1.0131454,2.6876402,-1.7636225
598,1,100.23577,76.17985,2.9382026,1.0028176,2.7057426,-1.7596047
599,1,99.80754,76.4319,2.953882,0.99251,2.723741,-1.7554855
600,1,99.37849,76.68253,2.9694788,0.9822784,2.7416525,-1.7512928
601,1,98.94861,76.931755,2.9849873,0.9720998,2.759467,-1.7470324
602,1,98.51791,77.179565,3.000422,0.96195865,2.7771842,-1.7426718
603,1,98.086395,77.425964,3.0157704,0.95187336,2.794806,-1.738237
604,1,97.6541,77.67096,3.0310323,0.94184357,2.812332,-1.7337239
605,1,97.22099,77.91455,3.046217,0.93185437,2.82976,-1.7291421
606,1,96.78711,78.15674,3.0613174,0.92193085,2.8470962,-1.7244773
607,1,96.35245,78.39753,3.0763154,0.91206783,2.8643327,-1.719738
608,1,95.91702,78.636925,3.0912585,0.90223336,2.881474,-1.7149206
609,1,95.48083,78.87493,3.1060941,0.8924756,2.898519,-1.710033
610,1,95.04388,79.11155,3.120865,0.8827466,2.915466,-1.7050811
611,1,94.606186,79.34678,3.135542,0.87309295,2.9323206,-1.7000388
612,1,94.16775,79.58063,3.1501188,0.8634825,2.9490697,-1.694938
613,1,93.728584,79.813095,3.164658,0.8539058,2.965731,-1.6897644
614,1,93.28869,80.04418,3.1790671,0.8444192,2.9822924,-1.6845245
615,1,92.848076,80.2739,3.1934063,0.8349716,2.9987574,-1.6792082
616,1,92.406746,80.50225,3.2076697,0.82556516,3.0151238,-1.6738243
617,1,91.964714,80.729225,3.2218523,0.8162253,3.031399,-1.6683863
618,1,91.52199,80.954834,3.2359264,0.8069431,3.0475707,-1.6628667
619,1,91.07856,81.179085,3.2499382,0.79769105,3.0636451,-1.6572855
620,1,90.63445,81.40198,3.2638657,0.7885135,3.0796292,-1.6516454
621,1,90.18967,81.623505,3.2776859,0.7793775,3.0955048,-1.6459364
622,1,89.74422,81.84368,3.2914577,0.7703043,3.1112988,-1.6401696
623,1,89.29809,82.06251,3.3051083,0.76129556,3.126987,-1.6343362
624,1,88.85131,82.27999,3.3186982,0.75231284,3.142577,-1.6284295
625,1,88.40388,82.496124,3.332209,0.7434018,3.158078,-1.6224824
626,1,87.955795,82.71091,3.345613,0.7345455,3.1734746,-1.6164699
627,1,87.50707,82.924355,3.3589442,0.72574365,3.1887789,-1.6103932
628,1,87.05772,83.136475,3.3721986,0.7169846,3.2039852,-1.6042609
629,1,86.607735,83.347244,3.3853629,0.7082841,3.219094,-1.5980614
630,1,86.157135,83.55669,3.3984354,0.6996437,3.2341063,-1.591814
631,1,85.70592,83.76481,3.4114363,0.69104654,3.2490227,-1.5855099
632,1,85.25409,83.971596,3.4243536,0.68251,3.2638452,-1.5791516
633,1,84.80165,84.177055,3.4371648,0.67404544,3.2785697,-1.5727316
634,1,84.348625,84.3812,3.4499166,0.665597,3.2931936,-1.5662568
635,1,83.895,84.58402,3.4625957,0.65721685,3.30773,-1.5597308
636,1,83.44079,84.78554,3.4751508,0.6489174,3.3221657,-1.553161
637,1,82.986,84.985725,3.4876497,0.64064217,3.3365045,-1.5465205
638,1,82.53064,85.184616,3.5000637,0.63242567,3.3507493,-1.5398333
639,1,82.07471,85.38219,3.512392,0.6242653,3.3648977,-1.5331044
640,1,81.61821,85.57846,3.5246227,0.61617064,3.3789499,-1.5263175
641,1,81.161156,85.77343,3.5367858,0.608104,3.3929036,-1.5194823
642,1,80.70355,85.967094,3.548875,0.6001019,3.4067683,-1.5125939
643,1,80.2454,86.15946,3.5608516,0.5921729,3.4205344,-1.5056665
644,1,79.786705,86.35054,3.572766,0.58427817,3.434206,-1.498679
645,1,79.32747,86.54032,3.584604,0.5764409,3.447786,-1.4916542
646,1,78.86771,86.72881,3.5963476,0.56866115,3.4612687,-1.4845773
647,1,78.407425,86.916016,3.6080084,0.5609311,3.474655,-1.4774519
648,1,77.94662,87.10193,3.6196017,0.5532522,3.4879508,-1.4702873
649,1,77.48529,87.28657,3.6310978,0.54563165,3.5011492,-1.4630716
650,1,77.02345,87.469925,3.6425116,0.5380703,3.514255,-1.4558121
651,1,76.56111,87.652,3.6538465,0.53054845,3.5272632,-1.4485047
652,1,76.09827,87.8328,3.6651075,0.52306634,3.5401754,-1.4411508
653,1,75.63493,88.01233,3.6762784,0.5156693,3.5530019,-1.4337742
654,1,75.171104,88.19058,3.6873615,0.5083211,3.5657308,-1.4263462
655,1,74.706795,88.36757,3.6983652,0.50101495,3.5783632,-1.4188515
656,1,74.242004,88.54329,3.709298,0.49376953,3.5909085,-1.411343
657,1,73.77673,88.71775,3.7201407,0.4865704,3.6033556,-1.4037886
658,1,73.311,88.890945,3.7309039,0.47941184,3.6157057,-1.3961866
659,1,72.84479,89.06288,3.741597,0.47233075,3.627975,-1.3885602
660,1,72.37812,89.23357,3.7521749,0.46530718,3.6401415,-1.3808842
661,1,71.910995,89.40299,3.762713,0.45829755,3.6522164,-1.3731531
662,1,71.44342,89.57117,3.7731647,0.4513777,3.6642094,-1.3654094
663,1,70.975395,89.73809,3.7835078,0.44449517,3.6760955,-1.3576201
664,1,70.50693,89.90376,3.7938051,0.4376691,3.6879025,-1.3497835
665,1,70.03802,90.0682,3.8039935,0.43090004,3.6996095,-1.3419255
666,1,69.56868,90.231384,3.8141284,0.42416403,3.7112272,-1.3340166
667,1,69.09891,90.393326,3.8241673,0.41750917,3.7227576,-1.3260857
668,1,68.628716,90.55403,3.8341165,0.410881,3.7341845,-1.3181043
669,1,68.1581,90.7135,3.8440235,0.40430588,3.7455332,-1.3100911
670,1,67.687065,90.871735,3.8538065,0.39781108,3.7567854,-1.3020614
671,1,67.21562,91.02874,3.863534,0.39133626,3.767944,-1.2939744
672,1,66.74377,91.18451,3.8731892,0.38492778,3.779019,-1.2858583
673,1,66.27151,91.33905,3.8827376,0.37858108,3.7899976,-1.2777255
674,1,65.79884,91.49237,3.8922396,0.37225756,3.800887,-1.2695391
675,1,65.32579,91.64446,3.9016454,0.36601233,3.8116896,-1.2613292
676,1,64.85235,91.79533,3.9109645,0.35980406,3.8223944,-1.2530866
677,1,64.37852,91.94498,3.9202304,0.35364857,3.833018,-1.244808
678,1,63.904305,92.09341,3.9293935,0.34754828,3.8435452,-1.2365065
679,1,63.42971,92.240616,3.9384909,0.34149933,3.8539872,-1.2281677
680,1,62.954742,92.38662,3.9475133,0.3355059,3.8643425,-1.2198095
681,1,62.479404,92.5314,3.9564416,0.32956448,3.8746033,-1.2114089
682,1,62.003696,92.67498,3.965317,0.3236586,3.8847785,-1.2029809
683,1,61.527626,92.817345,3.9741037,0.31781632,3.894865,-1.1945244
684,1,61.051197,92.9585,3.982801,0.31202185,3.904858,-1.1860427
685,1,60.57441,93.09846,3.9914412,0.30627787,3.9147694,-1.1775296
686,1,60.097275,93.237206,3.9999864,0.300583,3.924586,-1.1689912
687,1,59.61979,93.374756,4.0084777,0.29493338,3.9343204,-1.1604207
688,1,59.141964,93.51111,4.0168715,0.28935626,3.9439676,-1.151831
689,1,58.663795,93.646255,4.02519,0.28381357,3.953522,-1.1432034
690,1,58.18529,93.78021,4.0334477,0.2783221,3.9629946,-1.1345493
691,1,57.706455,93.91298,4.0416164,0.2728735,3.972373,-1.1258779
692,1,57.22729,94.04455,4.049713,0.2674886,3.9816704,-1.1171821
693,1,56.7478,94.17493,4.0577316,0.2621468,3.9908774,-1.1084616
694,1,56.267982,94.30412,4.065674,0.2568514,3.9999964,-1.099697
695,1,55.787853,94.43212,4.073556,0.25161198,4.009036,-1.0909345
696,1,55.307407,94.558945,4.0813503,0.2464288,4.0179873,-1.0821352
697,1,54.826653,94.68458,4.089057,0.24129081,4.026847,-1.0733004
698,1,54.34559,94.80903,4.0967226,0.23619327,4.035629,-1.0644497
699,1,53.86422,94.932304,4.1042795,0.23115258,4.0443153,-1.0555812
700,1,53.382553,95.0544,4.1117783,0.22615469,4.05292,-1.0466892
701,1,52.90059,95.175316,4.1191998,0.22121115,4.0614395,-1.0377709
702,1,52.41833,95.29505,4.126537,0.21631972,4.0698714,-1.0288335
703,1,51.93578,95.41362,4.133818,0.21147862,4.0782247,-1.019877
704,1,51.452946,95.53101,4.1410127,0.20668246,4.086488,-1.0108858
705,1,50.96983,95.64724,4.1481295,0.20193695,4.0946646,-1.0018721
706,1,50.48643,95.7623,4.155195,0.19723423,4.1027627,-0.9928541
707,1,50.002758,95.87618,4.162156,0.19258825,4.1107683,-0.98380196
708,1,49.518814,95.9889,4.1690516,0.18798494,4.1186905,-0.97473186
709,1,49.034595,96.10046,4.1758976,0.183425,4.126535,-0.96564335
710,1,48.55011,96.21085,4.182633,0.17892972,4.134288,-0.95654005
711,1,48.065365,96.32008,4.189331,0.17447089,4.141965,-0.9474131
712,1,47.580357,96.428154,4.1959343,0.1700749,4.149556,-0.93826073
713,1,47.095093,96.535065,4.2024674,0.16571292,4.1570597,-0.92909217
714,1,46.609577,96.640816,4.2089534,0.16140018,4.164489,-0.9199052
715,1,46.12381,96.745415,4.215328,0.15714894,4.1718264,-0.9107113
716,1,45.637794,96.84886,4.2216516,0.15292703,4.1790814,-0.9014787
717,1,45.151535,96.95115,4.2279124,0.14876033,4.1862593,-0.89224035
718,1,44.665035,97.05229,4.234078,0.14464967,4.193349,-0.8829911
719,1,44.1783,97.152275,4.240179,0.14057845,4.200356,-0.8737009
720,1,43.691326,97.251114,4.2462077,0.13655657,4.2072816,-0.8644048
721,1,43.204124,97.3488,4.25217,0.13257585,4.2141237,-0.8551025
722,1,42.71669,97.44534,4.25806,0.12864004,4.2208824,-0.84576964
723,1,42.229034,97.54074,4.263869,0.12477328,4.227564,-0.83643734
724,1,41.741154,97.634995,4.26962,0.120942704,4.2341638,-0.82708335
725,1,41.25305,97.72811,4.275294,0.11716079,4.2406807,-0.8176913
726,1,40.764736,97.820076,4.280896,0.113426104,4.247116,-0.8083033
727,1,40.27621,97.910904,4.2864375,0.109727755,4.253469,-0.79889566
728,1,39.787468,98.00059,4.291896,0.10608892,4.259741,-0.7894775
729,1,39.29852,98.08914,4.297278,0.10249335,4.2659287,-0.780039
730,1,38.80937,98.17656,4.302603,0.098942496,4.27204,-0.7705823
731,1,38.320015,98.26283,4.3078456,0.095446005,4.278068,-0.76112616
732,1,37.830463,98.34798,4.3130217,0.09197962,4.2840114,-0.7516375
733,1,37.340714,98.431984,4.31814,0.08857371,4.2898827,-0.7421454
734,1,36.850773,98.51486,4.323167,0.08521657,4.295667,-0.7326464
735,1,36.36064,98.59661,4.328136,0.081900164,4.3013735,-0.7231133
736,1,35.870323,98.67722,4.3330483,0.07863057,4.3070045,-0.7135852
737,1,35.37982,98.75671,4.3378716,0.07541336,4.3125505,-0.70403814
738,1,34.889137,98.83507,4.342624,0.0722388,4.3180156,-0.69447035
739,1,34.398273,98.9123,4.3473325,0.069102824,4.323406,-0.68489605
740,1,33.907234,98.9884,4.3519387,0.066026084,4.3287106,-0.67531556
741,1,33.416023,99.063385,4.3564935,0.06298308,4.333937,-0.66571105
742,1,32.92464,99.13724,4.36097,0.060003646,4.3390875,-0.6561062
743,1,32.43309,99.20997,4.3653793,0.05704699,4.344151,-0.6464894
744,1,31.941378,99.28158,4.3697395,0.054146554,4.3491454,-0.63684666
745,1,31.449501,99.352066,4.3739953,0.051301137,4.354052,-0.62721014
746,1,30.957466,99.42143,4.378201,0.04849517,4.358884,-0.6175477
747,1,30.465273,99.48968,4.3823543,0.04572424,4.363639,-0.607879
748,1,29.972929,99.55681,4.3864155,0.043019913,4.368314,-0.59820604
749,1,29.480433,99.62282,4.390399,0.040357184,4.372906,-0.58852535
750,1,28.987785,99.68771,4.3943563,0.037716523,4.377426,-0.5788106
751,1,28.494993,99.751495,4.3982058,0.035150982,4.381864,-0.5691157
752,1,28.00206,99.814156,4.402003,0.032603454,4.38622,-0.55939454
753,1,27.508986,99.87571,4.4057384,0.030131336,4.39051,-0.5496619
754,1,27.015772,99.93614,4.4093723,0.02768671,4.394705,-0.53993213
755,1,26.522427,99.99546,4.4129877,0.025284965,4.398837,-0.5301689
756,1,26.028946,100.05367,4.4165006,0.022937106,4.402883,-0.5204321
757,1,25.535336,100.11077,4.419949,0.020625742,4.406849,-0.5106555
758,1,25.041601,100.16676,4.4233522,0.018369319,4.4107485,-0.5008901
759,1,24.547739,100.22164,4.4266667,0.016153859,4.4145617,-0.49111232
760,1,24.053755,100.27541,4.4299097,0.013992047,4.4182987,-0.48130754
761,1,23.559652,100.32807,4.4331093,0.011859792,4.421962,-0.47151735
762,1,23.065434,100.37963,4.4362307,0.009782558,4.4255466,-0.46171498
763,1,22.571098,100.43008,4.439255,0.0077538793,4.429046,-0.45189947
764,1,22.076653,100.479416,4.442252,0.0057526776,4.4324756,-0.44206804
765,1,21.582098,100.52765,4.4451714,0.0038004995,4.435826,-0.43224382
766,1,21.087437,100.574776,4.4480085,0.0019062697,4.4390984,-0.42241952
767,1,20.592672,100.620804,4.4507866,4.7339872e-05,4.442294,-0.4125623
768,1,20.097805,100.665726,4.4535127,-0.0017627559,4.445419,-0.40271193
769,1,19.60284,100.70954,4.456161,-0.0035226918,4.4484653,-0.392869
770,1,19.107779,100.75226,4.458723,-0.0052365833,4.4514294,-0.3829952
771,1,18.612623,100.79387,4.4612575,-0.0069240793,4.454324,-0.3731216
772,1,18.117374,100.83438,4.463714,-0.008558567,4.4571404,-0.36325845
773,1,17.62204,100.873795,4.466073,-0.010143189,4.4598722,-0.35337925
774,1,17.126617,100.9121,4.468412,-0.011692757,4.46254,-0.34347886
775,1,16.631111,100.94931,4.470657,-0.013179676,4.465128,-0.3335985
776,1,16.135525,100.98542,4.4728184,-0.01463537,4.46763,-0.32369184
777,1,15.639857,101.02043,4.4749603,-0.016046386,4.470072,-0.31378236
778,1,15.1441145,101.054344,4.476995,-0.017416945,4.472422,-0.3038884
779,1,14.648298,101.08716,4.4789815,-0.01874326,4.4747024,-0.2939606
780,1,14.15241,101.11887,4.480908,-0.020015568,4.476912,-0.28405496
781,1,13.656454,101.14949,4.482743,-0.021241957,4.479038,-0.27413738
782,1,13.160429,101.179016,4.4845285,-0.022427823,4.481093,-0.26418784
783,1,12.664343,101.207436,4.486248,-0.023573747,4.4830704,-0.25426927
784,1,12.168193,101.234764,4.4879093,-0.024689652,4.4849696,-0.24433699
785,1,11.671985,101.261,4.489495,-0.025737265,4.4867983,-0.23439783
786,1,11.175719,101.28613,4.4910045,-0.026744435,4.488547,-0.22446388
787,1,10.6794,101.31018,4.49247,-0.027714156,4.490225,-0.21450196
788,1,10.183029,101.33312,4.493872,-0.02863322,4.491831,-0.20456791
789,1,9.686608,101.35498,4.4951787,-0.029513722,4.493349,-0.19460659
790,1,9.190142,101.37574,4.496448,-0.030345876,4.4948034,-0.18464541
791,1,8.693628,101.3954,4.497654,-0.031151364,4.4961767,-0.17469653
792,1,8.197075,101.41397,4.4987726,-0.03188494,4.4974766,-0.16474251
793,1,7.7004814,101.43144,4.499831,-0.032590162,4.4986987,-0.15477592
794,1,7.2038503,101.44783,4.5008373,-0.033245645,4.4998527,-0.14480135
795,1,6.7071834,101.46312,4.501774,-0.033870056,4.500925,-0.1348509
796,1,6.210486,101.47732,4.5026455,-0.03444267,4.501925,-0.12487714
797,1,5.713758,101.49042,4.503453,-0.0349639,4.502853,-0.114921436
798,1,5.2170005,101.50243,4.5041895,-0.03544529,4.5037036,-0.10494419
799,1,4.72022,101.51335,4.5048647,-0.035877433,4.504483,-0.094969556
800,1,4.223416,101.52318,4.5054874,-0.03628665,4.5051856,-0.08500476
801,1,3.726591,101.53191,4.506041,-0.036632612,4.505818,-0.075048655
802,1,3.229749,101.53955,4.506515,-0.036944147,4.506369,-0.065088004
803,1,2.7328913,101.546104,4.506954,-0.037198383,4.506862,-0.05513725
804,1,2.2360198,101.55157,4.507322,-0.0374281,4.5072722,-0.04520703
805,1,1.7391374,101.55593,4.50763,-0.03759927,4.507617,-0.035271194
806,1,1.2422473,101.559204,4.5079427,-0.03776609,4.5078864,-0.025441611
807,1,0.74535084,101.561386,4.508323,-0.03775772,4.508083,-0.015758762
808,1,0.24845012,101.56248,4.508027,-0.037467286,4.5080085,-0.0068535083
